;; translated from ./ctigar/dillig03.c.vmt
;; original benchmark available at: https://es-static.fbk.eu/people/griggio/ic3ia/index.html
;; author: Alberto Griggio <griggio@fbk.eu>
(set-logic HORN)
(declare-fun state (Bool Bool Bool Bool Int Int Int) Bool)
(assert (forall ((|.s.0| Bool) (|.s.1| Bool) (|.s.2.next| Bool) (|.s.0.next| Bool) (|.s.1.next| Bool) (|.s.3.next| Bool) (|main.k.next| Int) (|main.k| Int) (|main.w.next| Int) (|main.w| Int) (|main.z.next| Int) (|main.z| Int) (|.inputVar.0| Int) (|.s.3| Bool) (|.s.2| Bool)) (=> (let ((.def_17 (not .s.3)))
(let ((.def_14 (not .s.2)))
(let ((.def_10 (not .s.1)))
(let ((.def_12 (and .def_10 .s.0)))
(let ((.def_15 (and .def_12 .def_14)))
(let ((.def_18 (and .def_15 .def_17)))
.def_18)))))) (state |.s.1| |.s.0| |.s.2| |.s.3| |main.k| |main.w| |main.z|))))
(assert (forall ((|.s.0| Bool) (|.s.1| Bool) (|.s.2.next| Bool) (|.s.0.next| Bool) (|.s.1.next| Bool) (|.s.3.next| Bool) (|main.k.next| Int) (|main.k| Int) (|main.w.next| Int) (|main.w| Int) (|main.z.next| Int) (|main.z| Int) (|.inputVar.0| Int) (|.s.3| Bool) (|.s.2| Bool)) (=> (and (state |.s.1| |.s.0| |.s.2| |.s.3| |main.k| |main.w| |main.z|) (let ((.def_19 (not .s.0)))
(let ((.def_10 (not .s.1)))
(let ((.def_20 (and .def_10 .def_19)))
(let ((.def_14 (not .s.2)))
(let ((.def_85 (and .def_14 .def_20)))
(let ((.def_17 (not .s.3)))
(let ((.def_180 (and .def_17 .def_85)))
(let ((.def_181 (not .def_180)))
(let ((.def_51 (not .s.2.next)))
(let ((.def_27 (not .s.0.next)))
(let ((.def_25 (not .s.1.next)))
(let ((.def_28 (and .def_25 .def_27)))
(let ((.def_52 (and .def_28 .def_51)))
(let ((.def_50 (not .s.3.next)))
(let ((.def_53 (and .def_50 .def_52)))
(let ((.def_35 (= main.k main.k.next)))
(let ((.def_54 (and .def_35 .def_53)))
(let ((.def_39 (= main.w main.w.next)))
(let ((.def_55 (and .def_39 .def_54)))
(let ((.def_43 (= main.z main.z.next)))
(let ((.def_56 (and .def_43 .def_55)))
(let ((.def_182 (or .def_56 .def_181)))
(let ((.def_175 (= main.w.next 1)))
(let ((.def_75 (and .s.1.next .def_27)))
(let ((.def_76 (and .def_51 .def_75)))
(let ((.def_88 (and .def_50 .def_76)))
(let ((.def_176 (and .def_88 .def_175)))
(let ((.def_174 (= main.k.next 1)))
(let ((.def_177 (and .def_174 .def_176)))
(let ((.def_178 (and .def_43 .def_177)))
(let ((.def_12 (and .def_10 .s.0)))
(let ((.def_15 (and .def_12 .def_14)))
(let ((.def_18 (and .def_15 .def_17)))
(let ((.def_173 (not .def_18)))
(let ((.def_179 (or .def_173 .def_178)))
(let ((.def_183 (and .def_179 .def_182)))
(let ((.def_62 (and .s.1.next .s.0.next)))
(let ((.def_63 (and .def_51 .def_62)))
(let ((.def_168 (and .def_50 .def_63)))
(let ((.def_169 (and .def_35 .def_168)))
(let ((.def_170 (and .def_39 .def_169)))
(let ((.def_171 (and .def_43 .def_170)))
(let ((.def_156 (= .inputVar.0 0)))
(let ((.def_58 (and .s.1 .def_19)))
(let ((.def_59 (and .def_14 .def_58)))
(let ((.def_155 (and .def_17 .def_59)))
(let ((.def_166 (and .def_155 .def_156)))
(let ((.def_167 (not .def_166)))
(let ((.def_172 (or .def_167 .def_171)))
(let ((.def_184 (and .def_172 .def_183)))
(let ((.def_136 (and .def_25 .s.0.next)))
(let ((.def_160 (and .def_51 .def_136)))
(let ((.def_161 (and .s.3.next .def_160)))
(let ((.def_162 (and .def_35 .def_161)))
(let ((.def_163 (and .def_39 .def_162)))
(let ((.def_164 (and .def_43 .def_163)))
(let ((.def_157 (not .def_156)))
(let ((.def_158 (and .def_155 .def_157)))
(let ((.def_159 (not .def_158)))
(let ((.def_165 (or .def_159 .def_164)))
(let ((.def_185 (and .def_165 .def_184)))
(let ((.def_30 (and .def_28 .s.2.next)))
(let ((.def_150 (and .def_30 .def_50)))
(let ((.def_149 (= main.z.next .inputVar.0)))
(let ((.def_151 (and .def_149 .def_150)))
(let ((.def_152 (and .def_35 .def_151)))
(let ((.def_153 (and .def_39 .def_152)))
(let ((.def_46 (and .s.1 .s.0)))
(let ((.def_47 (and .def_14 .def_46)))
(let ((.def_146 (and .def_17 .def_47)))
(let ((.def_147 (not .def_146)))
(let ((.def_154 (or .def_147 .def_153)))
(let ((.def_186 (and .def_154 .def_185)))
(let ((.def_132 (<= main.z 5)))
(let ((.def_21 (and .s.2 .def_20)))
(let ((.def_130 (and .def_17 .def_21)))
(let ((.def_143 (and .def_130 .def_132)))
(let ((.def_144 (not .def_143)))
(let ((.def_112 (and .s.2.next .def_62)))
(let ((.def_113 (and .def_50 .def_112)))
(let ((.def_114 (and .def_35 .def_113)))
(let ((.def_115 (and .def_39 .def_114)))
(let ((.def_116 (and .def_43 .def_115)))
(let ((.def_145 (or .def_116 .def_144)))
(let ((.def_187 (and .def_145 .def_186)))
(let ((.def_137 (and .s.2.next .def_136)))
(let ((.def_138 (and .def_50 .def_137)))
(let ((.def_139 (and .def_35 .def_138)))
(let ((.def_140 (and .def_39 .def_139)))
(let ((.def_141 (and .def_43 .def_140)))
(let ((.def_133 (not .def_132)))
(let ((.def_134 (and .def_130 .def_133)))
(let ((.def_135 (not .def_134)))
(let ((.def_142 (or .def_135 .def_141)))
(let ((.def_188 (and .def_142 .def_187)))
(let ((.def_124 (and .s.2.next .def_75)))
(let ((.def_125 (and .def_50 .def_124)))
(let ((.def_121 (* (- 1) main.w.next)))
(let ((.def_122 (+ main.w .def_121)))
(let ((.def_123 (= .def_122 (- 1))))
(let ((.def_126 (and .def_123 .def_125)))
(let ((.def_127 (and .def_35 .def_126)))
(let ((.def_128 (and .def_43 .def_127)))
(let ((.def_118 (and .def_12 .s.2)))
(let ((.def_119 (and .def_17 .def_118)))
(let ((.def_120 (not .def_119)))
(let ((.def_129 (or .def_120 .def_128)))
(let ((.def_189 (and .def_129 .def_188)))
(let ((.def_109 (and .s.2 .def_58)))
(let ((.def_110 (and .def_17 .def_109)))
(let ((.def_111 (not .def_110)))
(let ((.def_117 (or .def_111 .def_116)))
(let ((.def_190 (and .def_117 .def_189)))
(let ((.def_104 (and .s.3.next .def_52)))
(let ((.def_98 (* (- 1) main.k.next)))
(let ((.def_101 (+ .def_98 main.w)))
(let ((.def_102 (+ main.k .def_101)))
(let ((.def_103 (= .def_102 0)))
(let ((.def_105 (and .def_103 .def_104)))
(let ((.def_106 (and .def_39 .def_105)))
(let ((.def_107 (and .def_43 .def_106)))
(let ((.def_93 (and .s.2 .def_46)))
(let ((.def_94 (and .def_17 .def_93)))
(let ((.def_95 (not .def_94)))
(let ((.def_108 (or .def_95 .def_107)))
(let ((.def_191 (and .def_108 .def_190)))
(let ((.def_89 (and .def_35 .def_88)))
(let ((.def_90 (and .def_39 .def_89)))
(let ((.def_91 (and .def_43 .def_90)))
(let ((.def_86 (and .s.3 .def_85)))
(let ((.def_87 (not .def_86)))
(let ((.def_92 (or .def_87 .def_91)))
(let ((.def_192 (and .def_92 .def_191)))
(let ((.def_71 (<= main.k 0)))
(let ((.def_69 (and .def_15 .s.3)))
(let ((.def_82 (and .def_69 .def_71)))
(let ((.def_83 (not .def_82)))
(let ((.def_32 (and .def_30 .s.3.next)))
(let ((.def_36 (and .def_32 .def_35)))
(let ((.def_40 (and .def_36 .def_39)))
(let ((.def_44 (and .def_40 .def_43)))
(let ((.def_84 (or .def_44 .def_83)))
(let ((.def_193 (and .def_84 .def_192)))
(let ((.def_77 (and .s.3.next .def_76)))
(let ((.def_78 (and .def_35 .def_77)))
(let ((.def_79 (and .def_39 .def_78)))
(let ((.def_80 (and .def_43 .def_79)))
(let ((.def_72 (not .def_71)))
(let ((.def_73 (and .def_69 .def_72)))
(let ((.def_74 (not .def_73)))
(let ((.def_81 (or .def_74 .def_80)))
(let ((.def_194 (and .def_81 .def_193)))
(let ((.def_64 (and .s.3.next .def_63)))
(let ((.def_65 (and .def_35 .def_64)))
(let ((.def_66 (and .def_39 .def_65)))
(let ((.def_67 (and .def_43 .def_66)))
(let ((.def_60 (and .s.3 .def_59)))
(let ((.def_61 (not .def_60)))
(let ((.def_68 (or .def_61 .def_67)))
(let ((.def_195 (and .def_68 .def_194)))
(let ((.def_48 (and .s.3 .def_47)))
(let ((.def_49 (not .def_48)))
(let ((.def_57 (or .def_49 .def_56)))
(let ((.def_196 (and .def_57 .def_195)))
(let ((.def_22 (and .s.3 .def_21)))
(let ((.def_23 (not .def_22)))
(let ((.def_45 (or .def_23 .def_44)))
(let ((.def_197 (and .def_45 .def_196)))
.def_197))))))))))))))))))))))))))))))))))))))))))))))))))))))))))))))))))))))))))))))))))))))))))))))))))))))))))))))))))))))))))))))))))))))))))))))))))))))))))))))))))))))))) (state |.s.1.next| |.s.0.next| |.s.2.next| |.s.3.next| |main.k.next| |main.w.next| |main.z.next|))))
(assert (forall ((|.s.0| Bool) (|.s.1| Bool) (|.s.2.next| Bool) (|.s.0.next| Bool) (|.s.1.next| Bool) (|.s.3.next| Bool) (|main.k.next| Int) (|main.k| Int) (|main.w.next| Int) (|main.w| Int) (|main.z.next| Int) (|main.z| Int) (|.inputVar.0| Int) (|.s.3| Bool) (|.s.2| Bool)) (=> (state |.s.1| |.s.0| |.s.2| |.s.3| |main.k| |main.w| |main.z|) (let ((.def_19 (not .s.0)))
(let ((.def_10 (not .s.1)))
(let ((.def_20 (and .def_10 .def_19)))
(let ((.def_21 (and .s.2 .def_20)))
(let ((.def_22 (and .s.3 .def_21)))
(let ((.def_23 (not .def_22)))
.def_23)))))))))
(check-sat)
